10
1 0 1
2 0 1
2 1 5
3 0 3
3 1 3
3 2 6
4 0 1
4 1 4
4 2 6
4 3 4
5 0 1
5 1 7
5 2 1
5 3 4
5 4 4
6 0 2
6 1 1
6 2 1
6 3 4
6 4 7
6 5 1
7 0 7
7 1 4
7 2 5
7 3 6
7 4 1
7 5 7
7 6 4
8 0 4
8 1 3
8 2 1
8 3 5
8 4 2
8 5 2
8 6 7
8 7 2
9 0 5
9 1 7
9 2 4
9 3 4
9 4 3
9 5 6
9 6 7
9 7 1
9 8 6
